BAYES
324
2 2 2 2 2 2 2 2 2 2 2 2 2 2 2 2 2 2 2 2 2 2 2 2 2 2 2 2 2 2 2 2 2 2 2 2 2 2 2 2 2 2 2 2 2 2 2 2 2 2 2 2 2 2 2 2 2 2 2 2 2 2 2 2 2 2 2 2 2 2 2 2 2 2 2 2 2 2 2 2 2 2 2 2 2 2 2 2 2 2 2 2 2 2 2 2 2 2 2 2 2 2 2 2 2 2 2 2 2 2 2 2 2 2 2 2 2 2 2 2 2 2 2 2 2 2 2 2 2 2 2 2 2 2 2 2 2 2 2 2 2 2 2 2 2 2 2 2 2 2 2 2 2 2 2 2 2 2 2 2 2 2 2 2 2 2 2 2 2 2 2 2 2 2 2 2 2 2 2 2 2 2 2 2 2 2 2 2 2 2 2 2 2 2 2 2 2 2 2 2 2 2 2 2 2 2 2 2 2 2 2 2 2 2 2 2 2 2 2 2 2 2 2 2 2 2 2 2 2 2 2 2 2 2 2 2 2 2 2 2 2 2 2 2 2 2 2 2 2 2 2 2 2 2 2 2 2 2 2 2 2 2 2 2 2 2 2 2 2 2 2 2 2 2 2 2 2 2 2 2 2 2 2 2 2 2 2 2 2 2 2 2 2 2 2 2 2 2 2 2 2 2 2 2 2 2 2 2 2 2 2 2 2 2 2 2 2 2 2 2 2 2 2 2
324
3 1 18 0
3 2 19 1
3 3 20 2
3 4 21 3
3 5 22 4
3 6 23 5
3 7 24 6
3 8 25 7
3 9 26 8
3 10 27 9
3 11 28 10
3 12 29 11
3 13 30 12
3 14 31 13
3 15 32 14
3 16 33 15
3 17 34 16
2 18 17
3 19 36 18
3 20 37 19
3 21 38 20
3 22 39 21
3 23 40 22
3 24 41 23
3 25 42 24
3 26 43 25
3 27 44 26
3 28 45 27
3 29 46 28
3 30 47 29
3 31 48 30
3 32 49 31
3 33 50 32
3 34 51 33
3 35 52 34
2 36 35
3 37 54 36
3 38 55 37
3 39 56 38
3 40 57 39
3 41 58 40
3 42 59 41
3 43 60 42
3 44 61 43
3 45 62 44
3 46 63 45
3 47 64 46
3 48 65 47
3 49 66 48
3 50 67 49
3 51 68 50
3 52 69 51
3 53 70 52
2 54 53
3 55 72 54
3 56 73 55
3 57 74 56
3 58 75 57
3 59 76 58
3 60 77 59
3 61 78 60
3 62 79 61
3 63 80 62
3 64 81 63
3 65 82 64
3 66 83 65
3 67 84 66
3 68 85 67
3 69 86 68
3 70 87 69
3 71 88 70
2 72 71
3 73 90 72
3 74 91 73
3 75 92 74
3 76 93 75
3 77 94 76
3 78 95 77
3 79 96 78
3 80 97 79
3 81 98 80
3 82 99 81
3 83 100 82
3 84 101 83
3 85 102 84
3 86 103 85
3 87 104 86
3 88 105 87
3 89 106 88
2 90 89
3 91 108 90
3 92 109 91
3 93 110 92
3 94 111 93
3 95 112 94
3 96 113 95
3 97 114 96
3 98 115 97
3 99 116 98
3 100 117 99
3 101 118 100
3 102 119 101
3 103 120 102
3 104 121 103
3 105 122 104
3 106 123 105
3 107 124 106
2 108 107
3 109 126 108
3 110 127 109
3 111 128 110
3 112 129 111
3 113 130 112
3 114 131 113
3 115 132 114
3 116 133 115
3 117 134 116
3 118 135 117
3 119 136 118
3 120 137 119
3 121 138 120
3 122 139 121
3 123 140 122
3 124 141 123
3 125 142 124
2 126 125
3 127 144 126
3 128 145 127
3 129 146 128
3 130 147 129
3 131 148 130
3 132 149 131
3 133 150 132
3 134 151 133
3 135 152 134
3 136 153 135
3 137 154 136
3 138 155 137
3 139 156 138
3 140 157 139
3 141 158 140
3 142 159 141
3 143 160 142
2 144 143
3 145 162 144
3 146 163 145
3 147 164 146
3 148 165 147
3 149 166 148
3 150 167 149
3 151 168 150
3 152 169 151
3 153 170 152
3 154 171 153
3 155 172 154
3 156 173 155
3 157 174 156
3 158 175 157
3 159 176 158
3 160 177 159
3 161 178 160
2 162 161
3 163 180 162
3 164 181 163
3 165 182 164
3 166 183 165
3 167 184 166
3 168 185 167
3 169 186 168
3 170 187 169
3 171 188 170
3 172 189 171
3 173 190 172
3 174 191 173
3 175 192 174
3 176 193 175
3 177 194 176
3 178 195 177
3 179 196 178
2 180 179
3 181 198 180
3 182 199 181
3 183 200 182
3 184 201 183
3 185 202 184
3 186 203 185
3 187 204 186
3 188 205 187
3 189 206 188
3 190 207 189
3 191 208 190
3 192 209 191
3 193 210 192
3 194 211 193
3 195 212 194
3 196 213 195
3 197 214 196
2 198 197
3 199 216 198
3 200 217 199
3 201 218 200
3 202 219 201
3 203 220 202
3 204 221 203
3 205 222 204
3 206 223 205
3 207 224 206
3 208 225 207
3 209 226 208
3 210 227 209
3 211 228 210
3 212 229 211
3 213 230 212
3 214 231 213
3 215 232 214
2 216 215
3 217 234 216
3 218 235 217
3 219 236 218
3 220 237 219
3 221 238 220
3 222 239 221
3 223 240 222
3 224 241 223
3 225 242 224
3 226 243 225
3 227 244 226
3 228 245 227
3 229 246 228
3 230 247 229
3 231 248 230
3 232 249 231
3 233 250 232
2 234 233
3 235 252 234
3 236 253 235
3 237 254 236
3 238 255 237
3 239 256 238
3 240 257 239
3 241 258 240
3 242 259 241
3 243 260 242
3 244 261 243
3 245 262 244
3 246 263 245
3 247 264 246
3 248 265 247
3 249 266 248
3 250 267 249
3 251 268 250
2 252 251
3 253 270 252
3 254 271 253
3 255 272 254
3 256 273 255
3 257 274 256
3 258 275 257
3 259 276 258
3 260 277 259
3 261 278 260
3 262 279 261
3 263 280 262
3 264 281 263
3 265 282 264
3 266 283 265
3 267 284 266
3 268 285 267
3 269 286 268
2 270 269
3 271 288 270
3 272 289 271
3 273 290 272
3 274 291 273
3 275 292 274
3 276 293 275
3 277 294 276
3 278 295 277
3 279 296 278
3 280 297 279
3 281 298 280
3 282 299 281
3 283 300 282
3 284 301 283
3 285 302 284
3 286 303 285
3 287 304 286
2 288 287
3 289 306 288
3 290 307 289
3 291 308 290
3 292 309 291
3 293 310 292
3 294 311 293
3 295 312 294
3 296 313 295
3 297 314 296
3 298 315 297
3 299 316 298
3 300 317 299
3 301 318 300
3 302 319 301
3 303 320 302
3 304 321 303
3 305 322 304
2 306 305
2 324 306
2 325 307
2 326 308
2 327 309
2 328 310
2 329 311
2 330 312
2 331 313
2 332 314
2 333 315
2 334 316
2 335 317
2 336 318
2 337 319
2 338 320
2 339 321
2 340 322
1  323
8
0 1 0 1 1 0 0 1
8
0 1 0 1 1 0 1 0
8
1 0 0 1 1 0 0 1
8
0 1 1 0 0 1 1 0
8
1 0 0 1 1 0 1 0
8
0 1 1 0 0 1 1 0
8
0 1 0 1 0 1 1 0
8
1 0 1 0 1 0 0 1
8
0 1 0 1 1 0 1 0
8
0 1 1 0 0 1 1 0
8
1 0 0 1 0 1 1 0
8
1 0 1 0 1 0 0 1
8
0.6312014423882386 0.36879855761176145 0.5898636290970629 0.4101363709029371 0.13064856814849277 0.8693514318515072 0.4754834540656296 0.5245165459343706
8
1 0 1 0 1 0 0 1
8
0.45252188659496256 0.5474781134050375 0.25116089673019987 0.7488391032698002 0.8916883884798259 0.1083116115201742 0.46368326145775784 0.5363167385422422
8
0 1 1 0 0 1 0 1
8
1 0 1 0 0 1 1 0
4
1 0 1 0
8
0 1 1 0 0 1 0 1
8
0 1 1 0 0 1 1 0
8
1 0 0 1 0 1 1 0
8
0.7614154156362002 0.23858458436379984 0.36615898565404953 0.6338410143459504 0.3726789972192364 0.6273210027807636 0.9216066208721636 0.07839337912783637
8
0 1 1 0 1 0 0 1
8
1 0 0 1 1 0 1 0
8
1 0 1 0 0 1 1 0
8
1 0 1 0 0 1 1 0
8
0 1 1 0 0 1 0 1
8
1 0 1 0 0 1 1 0
8
1 0 1 0 1 0 0 1
8
1 0 1 0 0 1 1 0
8
1 0 0 1 0 1 1 0
8
1 0 0 1 0 1 1 0
8
1 0 0 1 0 1 1 0
8
0 1 1 0 1 0 0 1
8
1 0 1 0 1 0 0 1
4
0 1 1 0
8
0 1 0 1 1 0 1 0
8
0 1 0 1 1 0 1 0
8
0 1 1 0 0 1 0 1
8
0 1 0 1 1 0 0 1
8
0 1 0 1 1 0 0 1
8
0 1 0 1 1 0 1 0
8
0.5051734706883553 0.4948265293116448 0.5409373302000968 0.4590626697999032 0.06672903043393832 0.9332709695660617 0.025818537368485182 0.9741814626315148
8
0 1 1 0 0 1 0 1
8
0 1 0 1 0 1 0 1
8
1 0 1 0 0 1 1 0
8
1 0 1 0 0 1 1 0
8
1 0 0 1 0 1 0 1
8
0 1 1 0 0 1 1 0
8
0 1 1 0 1 0 1 0
8
0.1316321196288502 0.8683678803711498 0.5606467332923727 0.4393532667076273 0.7405325453627066 0.25946745463729337 0.5173821521672376 0.4826178478327624
8
1 0 0 1 1 0 1 0
8
0 1 0 1 0 1 1 0
4
0 1 1 0
8
0 1 0 1 1 0 0 1
8
1 0 1 0 1 0 0 1
8
1 0 0 1 1 0 0 1
8
1 0 0 1 0 1 0 1
8
0 1 0 1 0 1 0 1
8
0 1 1 0 1 0 1 0
8
0 1 1 0 1 0 0 1
8
1 0 0 1 0 1 1 0
8
0 1 1 0 1 0 0 1
8
0 1 1 0 0 1 1 0
8
1 0 1 0 0 1 0 1
8
1 0 1 0 1 0 0 1
8
1 0 0 1 0 1 1 0
8
0 1 1 0 1 0 0 1
8
0 1 0 1 0 1 0 1
8
0.16032706629735666 0.8396729337026433 0.4886062062102671 0.5113937937897329 0.9194245080652362 0.08057549193476374 0.8010904505683245 0.19890954943167552
8
0 1 0 1 0 1 1 0
4
1 0 1 0
8
0 1 1 0 1 0 0 1
8
0 1 1 0 1 0 1 0
8
0 1 1 0 1 0 1 0
8
1 0 1 0 0 1 0 1
8
0 1 1 0 0 1 1 0
8
1 0 0 1 1 0 0 1
8
1 0 1 0 0 1 0 1
8
0 1 1 0 1 0 0 1
8
0 1 1 0 1 0 1 0
8
1 0 0 1 0 1 0 1
8
0 1 0 1 1 0 0 1
8
0 1 1 0 1 0 1 0
8
0 1 0 1 1 0 1 0
8
0 1 1 0 1 0 1 0
8
1 0 0 1 1 0 1 0
8
0 1 0 1 1 0 1 0
8
0 1 1 0 0 1 0 1
4
0 1 0 1
8
0.35865009990298863 0.6413499000970114 0.5287808495061319 0.47121915049386803 0.6347535557645517 0.3652464442354482 0.1942862062158057 0.8057137937841944
8
0 1 0 1 1 0 0 1
8
1 0 1 0 0 1 1 0
8
0 1 0 1 0 1 0 1
8
0 1 1 0 0 1 1 0
8
1 0 1 0 1 0 1 0
8
1 0 0 1 0 1 0 1
8
0 1 0 1 1 0 1 0
8
0 1 1 0 0 1 0 1
8
1 0 0 1 0 1 0 1
8
1 0 1 0 1 0 0 1
8
1 0 1 0 0 1 0 1
8
0 1 1 0 0 1 1 0
8
1 0 0 1 1 0 0 1
8
0 1 0 1 1 0 0 1
8
0 1 0 1 1 0 0 1
8
1 0 1 0 0 1 1 0
4
0 1 1 0
8
1 0 0 1 1 0 1 0
8
1 0 0 1 0 1 1 0
8
1 0 1 0 1 0 1 0
8
0 1 1 0 1 0 1 0
8
1 0 0 1 1 0 0 1
8
1 0 1 0 0 1 0 1
8
0 1 1 0 1 0 1 0
8
1 0 0 1 0 1 1 0
8
1 0 1 0 1 0 0 1
8
0 1 0 1 0 1 1 0
8
1 0 0 1 1 0 0 1
8
0 1 0 1 1 0 1 0
8
0.42214084801236706 0.5778591519876328 0.9369677389509565 0.06303226104904346 0.3584936345625263 0.6415063654374737 0.44230841957564815 0.557691580424352
8
1 0 0 1 1 0 1 0
8
0 1 0 1 0 1 1 0
8
0.31732234273633875 0.6826776572636613 0.7149552446955841 0.2850447553044159 0.5865985829962004 0.4134014170037996 0.2763624773509984 0.7236375226490016
8
1 0 0 1 1 0 0 1
4
0.7495527946515735 0.25044720534842646 0.7535241875315744 0.2464758124684257
8
0 1 0 1 0 1 1 0
8
1 0 1 0 0 1 1 0
8
0 1 0 1 1 0 1 0
8
1 0 1 0 1 0 1 0
8
1 0 0 1 1 0 0 1
8
1 0 0 1 1 0 0 1
8
0 1 0 1 1 0 1 0
8
0 1 0 1 0 1 0 1
8
0 1 1 0 0 1 0 1
8
1 0 0 1 0 1 1 0
8
0 1 0 1 0 1 1 0
8
0 1 1 0 0 1 1 0
8
0.6470677169355779 0.35293228306442215 0.5936779426913192 0.4063220573086808 0.2732157957494527 0.7267842042505473 0.814360718476199 0.18563928152380113
8
1 0 0 1 0 1 1 0
8
0.3834660368573136 0.6165339631426864 0.6050352237671242 0.39496477623287585 0.5272616581018263 0.4727383418981736 0.5162045779582743 0.4837954220417257
8
1 0 0 1 1 0 0 1
8
1 0 1 0 1 0 1 0
4
0 1 0 1
8
0 1 0 1 1 0 0 1
8
1 0 0 1 0 1 1 0
8
1 0 0 1 0 1 0 1
8
1 0 1 0 0 1 1 0
8
1 0 0 1 0 1 1 0
8
1 0 1 0 0 1 0 1
8
0.2928305826018722 0.7071694173981278 0.5792950506656714 0.4207049493343285 0.9390545241299705 0.060945475870029554 0.19869422356442124 0.8013057764355789
8
0 1 0 1 0 1 1 0
8
0 1 0 1 0 1 0 1
8
0 1 1 0 1 0 0 1
8
1 0 1 0 1 0 0 1
8
0.5585977129097358 0.4414022870902642 0.5086949659455217 0.4913050340544783 0.09847724861256432 0.9015227513874357 0.9859978717677074 0.014002128232292648
8
1 0 0 1 0 1 0 1
8
0 1 0 1 1 0 0 1
8
1 0 1 0 0 1 0 1
8
0 1 0 1 0 1 1 0
8
0 1 1 0 1 0 0 1
4
0 1 0 1
8
0 1 0 1 0 1 0 1
8
1 0 0 1 1 0 1 0
8
1 0 0 1 1 0 1 0
8
0 1 0 1 0 1 0 1
8
0 1 1 0 0 1 1 0
8
0 1 1 0 1 0 0 1
8
1 0 1 0 1 0 1 0
8
1 0 0 1 0 1 1 0
8
0.5258684026631019 0.4741315973368982 0.954208188792772 0.045791811207227966 0.36924346240395556 0.6307565375960444 0.5060296807411947 0.49397031925880536
8
1 0 0 1 0 1 1 0
8
0 1 0 1 1 0 0 1
8
0 1 0 1 1 0 0 1
8
0.6278001999280453 0.3721998000719547 0.7453823525645747 0.2546176474354252 0.955337183067254 0.04466281693274603 0.5089224798031311 0.49107752019686896
8
0 1 1 0 1 0 0 1
8
0 1 0 1 1 0 0 1
8
0.5621939833075212 0.4378060166924787 0.009729209986629302 0.9902707900133707 0.18157190606392076 0.8184280939360793 0.7786800710983776 0.22131992890162244
8
0 1 1 0 0 1 1 0
4
1 0 0 1
8
0 1 0 1 1 0 0 1
8
1 0 0 1 1 0 1 0
8
0.5726975922592719 0.42730240774072814 0.1522426933771464 0.8477573066228536 0.20784543298511982 0.7921545670148802 0.20769691967409473 0.7923030803259052
8
0 1 0 1 1 0 1 0
8
0.11288973924831114 0.8871102607516888 0.4847501562773819 0.5152498437226181 0.6755034617163164 0.32449653828368363 0.5467603841450095 0.4532396158549905
8
1 0 0 1 1 0 0 1
8
1 0 0 1 0 1 0 1
8
0.38513854808766723 0.6148614519123328 0.9820046992710634 0.01799530072893666 0.48310927091242184 0.5168907290875782 0.5296263846448629 0.470373615355137
8
1 0 1 0 1 0 1 0
8
0 1 1 0 1 0 0 1
8
0 1 1 0 0 1 1 0
8
0 1 0 1 1 0 1 0
8
0 1 0 1 0 1 0 1
8
1 0 0 1 0 1 1 0
8
1 0 1 0 0 1 0 1
8
0.7590926311194865 0.24090736888051345 0.06015032951821186 0.9398496704817881 0.08526037375148825 0.9147396262485118 0.5607794310975954 0.4392205689024045
8
0 1 1 0 0 1 0 1
4
0 1 0 1
8
1 0 0 1 0 1 1 0
8
0.2697645835698254 0.7302354164301746 0.5114761567261938 0.48852384327380616 0.6865009426993162 0.3134990573006838 0.10693332708916398 0.8930666729108361
8
0 1 1 0 0 1 0 1
8
1 0 0 1 0 1 0 1
8
1 0 1 0 0 1 0 1
8
0 1 0 1 0 1 0 1
8
0 1 1 0 1 0 1 0
8
0 1 1 0 0 1 0 1
8
1 0 0 1 1 0 0 1
8
1 0 0 1 1 0 0 1
8
0 1 0 1 0 1 1 0
8
1 0 0 1 1 0 1 0
8
0 1 0 1 0 1 1 0
8
1 0 0 1 1 0 0 1
8
0 1 0 1 1 0 1 0
8
1 0 1 0 0 1 1 0
8
1 0 0 1 1 0 1 0
4
0 1 1 0
8
0 1 0 1 1 0 0 1
8
0.4183692339187477 0.5816307660812523 0.5771651629420419 0.42283483705795816 0.6454326403819396 0.3545673596180605 0.8133969943763795 0.1866030056236205
8
0 1 0 1 1 0 1 0
8
0 1 0 1 0 1 0 1
8
1 0 1 0 0 1 1 0
8
1 0 1 0 1 0 0 1
8
0 1 0 1 1 0 0 1
8
0 1 0 1 0 1 0 1
8
0 1 0 1 1 0 0 1
8
1 0 0 1 1 0 0 1
8
1 0 0 1 1 0 0 1
8
0 1 1 0 1 0 0 1
8
1 0 0 1 1 0 0 1
8
1 0 1 0 1 0 1 0
8
1 0 1 0 1 0 1 0
8
0 1 1 0 1 0 1 0
8
1 0 1 0 1 0 0 1
4
0.6354157506712574 0.3645842493287426 0.4239540966170471 0.5760459033829529
8
1 0 1 0 1 0 0 1
8
0 1 1 0 1 0 0 1
8
1 0 0 1 1 0 0 1
8
0 1 0 1 0 1 0 1
8
1 0 0 1 0 1 1 0
8
1 0 1 0 1 0 1 0
8
0 1 1 0 0 1 1 0
8
0 1 1 0 1 0 0 1
8
0 1 1 0 1 0 0 1
8
0 1 0 1 1 0 0 1
8
1 0 1 0 0 1 1 0
8
0 1 0 1 1 0 1 0
8
0 1 0 1 0 1 1 0
8
0 1 0 1 1 0 1 0
8
0 1 1 0 1 0 0 1
8
0 1 0 1 0 1 0 1
8
1 0 1 0 0 1 1 0
4
0 1 1 0
8
1 0 1 0 1 0 0 1
8
0 1 0 1 0 1 0 1
8
0.49545944519636115 0.5045405548036389 0.5001613235267485 0.4998386764732515 0.6815817523883021 0.3184182476116979 0.6977373016368629 0.3022626983631372
8
0 1 0 1 1 0 1 0
8
0.6306892228335529 0.36931077716644717 0.5112986167136783 0.4887013832863218 0.7228177161550864 0.2771822838449136 0.8417962023503311 0.15820379764966885
8
1 0 1 0 0 1 0 1
8
0 1 0 1 0 1 0 1
8
0 1 1 0 1 0 0 1
8
1 0 1 0 0 1 0 1
8
1 0 0 1 1 0 0 1
8
0 1 0 1 0 1 0 1
8
0 1 0 1 0 1 0 1
8
0 1 1 0 0 1 0 1
8
1 0 1 0 1 0 0 1
8
1 0 0 1 1 0 1 0
8
1 0 0 1 1 0 1 0
8
0 1 1 0 1 0 0 1
4
0 1 0 1
8
0 1 0 1 1 0 1 0
8
0 1 1 0 0 1 1 0
8
0.38644262327806034 0.6135573767219396 0.4167405266455155 0.5832594733544845 0.4136900644484626 0.5863099355515373 0.8041423620523113 0.19585763794768873
8
0 1 1 0 1 0 1 0
8
0.11674613094881833 0.8832538690511816 0.7937324379724127 0.20626756202758745 0.11344409818439598 0.8865559018156041 0.6482572385712185 0.35174276142878147
8
0 1 1 0 0 1 0 1
8
1 0 1 0 0 1 1 0
8
1 0 0 1 1 0 0 1
8
0.4799537835715753 0.5200462164284246 0.513785938992149 0.48621406100785114 0.32184230030959204 0.678157699690408 0.8288050523454462 0.17119494765455365
8
0 1 0 1 0 1 1 0
8
0 1 0 1 1 0 1 0
8
1 0 0 1 0 1 1 0
8
1 0 0 1 1 0 0 1
8
1 0 1 0 1 0 0 1
8
0 1 1 0 1 0 1 0
8
0 1 0 1 1 0 1 0
8
0 1 0 1 1 0 0 1
4
0 1 0 1
8
1 0 1 0 0 1 1 0
8
1 0 1 0 0 1 0 1
8
1 0 0 1 1 0 1 0
8
1 0 0 1 1 0 1 0
8
1 0 1 0 1 0 1 0
8
0 1 1 0 0 1 0 1
8
1 0 1 0 1 0 0 1
8
1 0 1 0 1 0 0 1
8
1 0 0 1 0 1 1 0
8
0 1 1 0 0 1 0 1
8
1 0 0 1 0 1 0 1
8
0 1 0 1 0 1 0 1
8
0.3843749791592588 0.6156250208407411 0.3943485688406484 0.6056514311593516 0.754511622063774 0.24548837793622597 0.6678901946368684 0.33210980536313156
8
0 1 0 1 0 1 1 0
8
0 1 1 0 0 1 0 1
8
1 0 1 0 1 0 0 1
8
1 0 0 1 1 0 0 1
4
0 1 1 0
4
1 0 1 0
4
0.6471350670233605 0.35286493297663946 0.3982853213222182 0.6017146786777818
4
1 0 1 0
4
1 0 0 1
4
1 0 1 0
4
0 1 1 0
4
0 1 0 1
4
0 1 1 0
4
1 0 1 0
4
1 0 0 1
4
0 1 0 1
4
0.7525075028520447 0.24749249714795535 0.4241030673431728 0.5758969326568272
4
0.68159852491525 0.3184014750847501 0.8314963992409578 0.16850360075904225
4
1 0 0 1
4
1 0 0 1
4
0 1 1 0
4
1 0 1 0
2
0 1
